projected/problems_b25_r0_d7_m100_s666/_DIMACS/b25_d7_r0_s666_086.cnf
p cnf 287 536 25
c p show 1 2 3 4 5 6 7 8 9 10 11 12 13 14 15 16 17 18 19 20 21 22 23 24 25
-87 -22 -17 0
-88 17 22 0
-89 88 0
-89 87 0
-90 -8 -22 0
-91 90 0
-91 89 0
-92 4 0
-92 10 0
-93 -4 0
-93 -10 0
-94 93 0
-94 92 0
-95 94 0
-95 91 0
-96 9 -20 0
-97 5 0
-97 -16 0
-98 16 0
-98 -5 0
-99 98 97 0
-100 99 96 0
-101 1 0
-101 -23 0
-102 18 0
-102 -11 0
-103 102 101 0
-104 103 100 0
-105 -1 23 0
-106 -18 11 0
-107 106 0
-107 105 0
-108 -9 0
-108 20 0
-109 -5 16 0
-110 -16 5 0
-111 110 0
-111 109 0
-112 111 0
-112 108 0
-113 112 107 0
-114 113 0
-114 104 0
-115 114 0
-115 95 0
-116 20 0
-116 16 0
-117 -9 14 0
-118 117 116 0
-119 16 10 0
-120 -4 14 0
-121 120 119 0
-122 121 0
-122 118 0
-123 20 -9 0
-124 13 0
-124 22 0
-125 124 123 0
-126 -13 -22 0
-127 -20 0
-127 9 0
-128 127 126 0
-129 128 0
-129 125 0
-130 -5 0
-130 21 0
-131 -21 0
-131 5 0
-132 131 130 0
-133 10 0
-133 3 0
-134 -3 0
-134 -10 0
-135 134 133 0
-136 135 0
-136 132 0
-137 136 129 0
-138 137 0
-138 122 0
-139 126 0
-139 127 0
-140 123 0
-140 124 0
-141 140 139 0
-142 5 -21 0
-143 21 -5 0
-144 143 0
-144 142 0
-145 -10 -3 0
-146 3 10 0
-147 146 0
-147 145 0
-148 147 144 0
-149 148 0
-149 141 0
-150 -20 -16 0
-151 9 0
-151 -14 0
-152 151 0
-152 150 0
-153 -16 0
-153 -10 0
-154 4 0
-154 -14 0
-155 154 0
-155 153 0
-156 155 152 0
-157 156 0
-157 149 0
-158 157 138 0
-159 158 0
-159 115 0
-160 -18 0
-160 -11 0
-161 24 21 0
-162 161 0
-162 160 0
-163 1 0
-163 8 0
-164 6 0
-164 11 0
-165 -11 0
-165 -6 0
-166 165 164 0
-167 166 163 0
-168 167 162 0
-169 9 6 0
-170 -6 -9 0
-171 170 0
-171 169 0
-172 15 0
-172 -12 0
-173 172 0
-173 171 0
-174 -13 -11 0
-175 25 -21 0
-176 175 0
-176 174 0
-177 -25 0
-177 21 0
-178 13 0
-178 11 0
-179 178 0
-179 177 0
-180 179 176 0
-181 180 173 0
-182 181 0
-182 168 0
-183 -4 0
-183 1 0
-184 4 0
-184 -8 0
-185 8 0
-185 -4 0
-186 185 184 0
-187 186 0
-187 183 0
-188 11 10 0
-189 -15 2 0
-190 189 188 0
-191 15 0
-191 -2 0
-192 -11 0
-192 -10 0
-193 192 191 0
-194 193 0
-194 190 0
-195 194 0
-195 187 0
-196 -23 2 0
-197 -14 0
-197 -11 0
-198 197 196 0
-199 -7 0
-199 3 0
-200 13 -15 0
-201 200 0
-201 199 0
-202 201 0
-202 198 0
-203 202 195 0
-204 203 182 0
-205 204 0
-205 159 0
-206 -10 -13 0
-207 24 -9 0
-208 207 0
-208 206 0
-209 -1 9 0
-210 22 0
-210 9 0
-211 210 209 0
-212 211 0
-212 208 0
-213 -5 5 0
-214 8 0
-214 -11 0
-215 214 213 0
-216 14 0
-216 -7 0
-217 14 0
-217 -25 0
-218 217 216 0
-219 218 0
-219 215 0
-220 219 212 0
-221 -5 0
-222 5 0
-223 222 221 0
-224 -11 0
-224 -25 0
-225 224 0
-225 223 0
-226 -17 -4 0
-227 -9 -14 0
-228 227 226 0
-229 228 0
-229 225 0
-230 6 0
-230 20 0
-231 11 20 0
-232 231 0
-232 230 0
-233 -9 -24 0
-234 19 -7 0
-235 234 233 0
-236 235 0
-236 232 0
-237 236 229 0
-238 237 0
-238 220 0
-239 -3 0
-239 -22 0
-240 -16 25 0
-241 240 239 0
-242 4 19 0
-243 -19 -4 0
-244 243 0
-244 242 0
-245 20 0
-245 -11 0
-246 245 0
-246 244 0
-247 246 241 0
-248 25 9 0
-249 -9 -25 0
-250 249 0
-250 248 0
-251 21 0
-251 22 0
-252 251 0
-252 250 0
-253 -25 0
-253 6 0
-254 -20 0
-254 2 0
-255 254 0
-255 253 0
-256 255 252 0
-257 256 0
-257 247 0
-258 13 12 0
-259 -15 0
-259 19 0
-260 259 0
-260 258 0
-261 -13 0
-261 -9 0
-262 1 7 0
-263 262 0
-263 261 0
-264 263 260 0
-265 -22 -7 0
-266 -16 -24 0
-267 266 0
-267 265 0
-268 21 -2 0
-269 -3 0
-269 1 0
-270 -1 0
-270 3 0
-271 270 269 0
-272 271 268 0
-273 272 0
-273 267 0
-274 273 264 0
-275 274 257 0
-276 275 238 0
-277 3 22 0
-278 16 0
-278 -25 0
-279 278 0
-279 277 0
-280 -4 0
-280 -19 0
-281 19 0
-281 4 0
-282 281 280 0
-283 -20 11 0
-284 283 282 0
-285 284 0
-285 279 0
-286 -25 0
-286 -9 0
-287 9 0
-287 25 0
-26 287 286 0
-42 -21 -22 0
-48 42 26 0
-54 25 -6 0
-60 20 -2 0
-66 60 54 0
-72 66 0
-72 48 0
-78 72 285 0
-84 -13 0
-84 -12 0
-27 15 -19 0
-28 27 84 0
-29 13 9 0
-30 -1 0
-30 -7 0
-31 30 29 0
-32 31 0
-32 28 0
-33 22 0
-33 7 0
-34 16 0
-34 24 0
-35 34 33 0
-36 -21 0
-36 2 0
-37 3 -1 0
-38 1 -3 0
-39 38 0
-39 37 0
-40 39 0
-40 36 0
-41 40 35 0
-43 41 0
-43 32 0
-44 43 0
-44 78 0
-45 10 0
-45 13 0
-46 -24 0
-46 9 0
-47 46 45 0
-49 1 0
-49 -9 0
-50 -22 -9 0
-51 50 0
-51 49 0
-52 51 47 0
-53 5 0
-53 -5 0
-55 -8 11 0
-56 55 0
-56 53 0
-57 -14 7 0
-58 -14 25 0
-59 58 0
-59 57 0
-61 59 56 0
-62 61 0
-62 52 0
-63 5 0
-64 -5 0
-65 64 0
-65 63 0
-67 11 25 0
-68 67 65 0
-69 17 0
-69 4 0
-70 9 0
-70 14 0
-71 70 0
-71 69 0
-73 71 68 0
-74 -6 -20 0
-75 -11 0
-75 -20 0
-76 75 74 0
-77 9 0
-77 24 0
-79 -19 0
-79 7 0
-80 79 0
-80 77 0
-81 80 76 0
-82 81 0
-82 73 0
-83 82 62 0
-85 83 44 0
-86 85 0
-86 276 0
86 0
205 0
-101 -105 0
-105 -101 0
-102 -106 0
-106 -102 0
-107 -103 0
-108 -96 0
-111 -99 0
-112 -100 0
-100 -112 0
-124 -126 0
-126 -124 0
-123 -127 0
-129 -141 0
-141 -129 0
-144 -132 0
-132 -144 0
-147 -135 0
-135 -147 0
-136 -148 0
-148 -136 0
-149 -137 0
-137 -149 0
-116 -150 0
-151 -117 0
-117 -151 0
-118 -152 0
-152 -118 0
-119 -153 0
-154 -120 0
-120 -154 0
-121 -155 0
-155 -121 0
-156 -122 0
-175 -177 0
-178 -174 0
-189 -191 0
-191 -189 0
-192 -188 0
-188 -192 0
-277 -239 0
-278 -240 0
-279 -241 0
-241 -279 0
-244 -282 0
-282 -244 0
-245 -283 0
-283 -245 0
-284 -246 0
-246 -284 0
-247 -285 0
-250 -26 0
-42 -251 0
-251 -42 0
-252 -48 0
-48 -252 0
-253 -54 0
-60 -254 0
-254 -60 0
-255 -66 0
-66 -255 0
-72 -256 0
-256 -72 0
-257 -78 0
-258 -84 0
-259 -27 0
-260 -28 0
-28 -260 0
-29 -261 0
-261 -29 0
-30 -262 0
-262 -30 0
-263 -31 0
-31 -263 0
-32 -264 0
-33 -265 0
-34 -266 0
-35 -267 0
-267 -35 0
-268 -36 0
-36 -268 0
-39 -271 0
-40 -272 0
-272 -40 0
-273 -41 0
-41 -273 0
-43 -274 0
-274 -43 0
-275 -44 0
-44 -275 0
-45 -206 0
-206 -45 0
-46 -207 0
-207 -46 0
-208 -47 0
-209 -49 0
-49 -209 0
-210 -50 0
-50 -210 0
-51 -211 0
-211 -51 0
-212 -52 0
-53 -213 0
-55 -214 0
-56 -215 0
-57 -216 0
-216 -57 0
-217 -58 0
-218 -59 0
-59 -218 0
-61 -219 0
-219 -61 0
-220 -62 0
-62 -220 0
-65 -223 0
-67 -224 0
-68 -225 0
-225 -68 0
-226 -69 0
-69 -226 0
-227 -70 0
-70 -227 0
-71 -228 0
-228 -71 0
-229 -73 0
-230 -74 0
-74 -230 0
-75 -231 0
-76 -232 0
-233 -77 0
-77 -233 0
-79 -234 0
-80 -235 0
-81 -236 0
-236 -81 0
-237 -82 0
-82 -237 0
-83 -238 0
-238 -83 0
