projected/problems_b25_r0_d7_m100_s666/b25_d7_r0_s666_086.smt2
(set-logic QF_UF)
(declare-fun A0 () Bool)
(declare-fun A1 () Bool)
(declare-fun A2 () Bool)
(declare-fun A3 () Bool)
(declare-fun A4 () Bool)
(declare-fun A5 () Bool)
(declare-fun A6 () Bool)
(declare-fun A7 () Bool)
(declare-fun A8 () Bool)
(declare-fun A9 () Bool)
(declare-fun A10 () Bool)
(declare-fun A11 () Bool)
(declare-fun A12 () Bool)
(declare-fun A13 () Bool)
(declare-fun A14 () Bool)
(declare-fun A15 () Bool)
(declare-fun A16 () Bool)
(declare-fun A17 () Bool)
(declare-fun A18 () Bool)
(declare-fun A19 () Bool)
(declare-fun A20 () Bool)
(declare-fun A21 () Bool)
(declare-fun A22 () Bool)
(declare-fun A23 () Bool)
(declare-fun A24 () Bool)
(assert (let ((.def_0 (not A16))) (let ((.def_1 (= .def_0 A21))) (let ((.def_2 (not A21))) (let ((.def_3 (not A7))) (let ((.def_4 (or .def_3 .def_2))) (let ((.def_5 (and .def_4 .def_1))) (let ((.def_6 (and A3 A9))) (let ((.def_7 (not .def_6))) (let ((.def_8 (not A9))) (let ((.def_9 (not A3))) (let ((.def_10 (and .def_9 .def_8))) (let ((.def_11 (not .def_10))) (let ((.def_12 (or .def_11 .def_7))) (let ((.def_13 (not .def_12))) (let ((.def_14 (and .def_13 .def_5))) (let ((.def_15 (not .def_14))) (let ((.def_16 (not A22))) (let ((.def_17 (and A0 .def_16))) (let ((.def_18 (not .def_17))) (let ((.def_19 (not A10))) (let ((.def_20 (and A17 .def_19))) (let ((.def_21 (not .def_20))) (let ((.def_22 (and .def_21 .def_18))) (let ((.def_23 (not A8))) (let ((.def_24 (and .def_23 A19))) (let ((.def_25 (= A15 A4))) (let ((.def_26 (and .def_25 .def_24))) (let ((.def_27 (not .def_26))) (let ((.def_28 (= .def_27 .def_22))) (let ((.def_29 (not .def_28))) (let ((.def_30 (or .def_29 .def_15))) (let ((.def_31 (not .def_30))) (let ((.def_32 (and A12 A21))) (let ((.def_33 (not .def_32))) (let ((.def_34 (or A19 .def_23))) (let ((.def_35 (= .def_34 .def_33))) (let ((.def_36 (not .def_35))) (let ((.def_37 (not A4))) (let ((.def_38 (not A20))) (let ((.def_39 (= .def_38 .def_37))) (let ((.def_40 (not .def_39))) (let ((.def_41 (not A2))) (let ((.def_42 (= .def_41 A9))) (let ((.def_43 (not .def_42))) (let ((.def_44 (and .def_43 .def_40))) (let ((.def_45 (not .def_44))) (let ((.def_46 (and .def_45 .def_36))) (let ((.def_47 (not .def_46))) (let ((.def_48 (and A19 A15))) (let ((.def_49 (not A13))) (let ((.def_50 (and A8 .def_49))) (let ((.def_51 (not .def_50))) (let ((.def_52 (or .def_51 .def_48))) (let ((.def_53 (not .def_52))) (let ((.def_54 (or A15 A9))) (let ((.def_55 (and A3 .def_49))) (let ((.def_56 (not .def_55))) (let ((.def_57 (or .def_56 .def_54))) (let ((.def_58 (not .def_57))) (let ((.def_59 (or .def_58 .def_53))) (let ((.def_60 (= .def_59 .def_47))) (let ((.def_61 (not .def_60))) (let ((.def_62 (and .def_61 .def_31))) (let ((.def_63 (not .def_62))) (let ((.def_64 (or A17 A10))) (let ((.def_65 (not A23))) (let ((.def_66 (and .def_65 .def_38))) (let ((.def_67 (or .def_66 .def_64))) (let ((.def_68 (and A0 A7))) (let ((.def_69 (= .def_19 A5))) (let ((.def_70 (not .def_69))) (let ((.def_71 (or .def_70 .def_68))) (let ((.def_72 (not .def_71))) (let ((.def_73 (and .def_72 .def_67))) (let ((.def_74 (= A5 .def_23))) (let ((.def_75 (not .def_74))) (let ((.def_76 (not A11))) (let ((.def_77 (and A14 .def_76))) (let ((.def_78 (not .def_77))) (let ((.def_79 (or .def_78 .def_75))) (let ((.def_80 (not .def_79))) (let ((.def_81 (or A24 .def_38))) (let ((.def_82 (and A12 A10))) (let ((.def_83 (= .def_82 .def_81))) (let ((.def_84 (not .def_83))) (let ((.def_85 (or .def_84 .def_80))) (let ((.def_86 (not .def_85))) (let ((.def_87 (or .def_86 .def_73))) (let ((.def_88 (not .def_87))) (let ((.def_89 (and .def_9 A0))) (let ((.def_90 (not .def_89))) (let ((.def_91 (= A7 A3))) (let ((.def_92 (or .def_91 .def_90))) (let ((.def_93 (not .def_92))) (let ((.def_94 (not A14))) (let ((.def_95 (or .def_94 A1))) (let ((.def_96 (not .def_95))) (let ((.def_97 (and .def_19 .def_8))) (let ((.def_98 (not .def_97))) (let ((.def_99 (= .def_98 .def_96))) (let ((.def_100 (and .def_99 .def_93))) (let ((.def_101 (not A1))) (let ((.def_102 (and A22 .def_101))) (let ((.def_103 (not .def_102))) (let ((.def_104 (and .def_49 .def_19))) (let ((.def_105 (or .def_104 .def_103))) (let ((.def_106 (not .def_105))) (let ((.def_107 (or A6 .def_41))) (let ((.def_108 (not .def_107))) (let ((.def_109 (not A12))) (let ((.def_110 (and .def_109 A14))) (let ((.def_111 (not .def_110))) (let ((.def_112 (and .def_111 .def_108))) (let ((.def_113 (not .def_112))) (let ((.def_114 (or .def_113 .def_106))) (let ((.def_115 (not .def_114))) (let ((.def_116 (or .def_115 .def_100))) (let ((.def_117 (or .def_116 .def_88))) (let ((.def_118 (not .def_117))) (let ((.def_119 (or .def_118 .def_63))) (let ((.def_120 (not .def_119))) (let ((.def_121 (or A2 A21))) (let ((.def_122 (not A24))) (let ((.def_123 (and A15 .def_122))) (let ((.def_124 (and .def_123 .def_121))) (let ((.def_125 (not .def_124))) (let ((.def_126 (= A18 .def_9))) (let ((.def_127 (not .def_126))) (let ((.def_128 (and A19 .def_19))) (let ((.def_129 (not .def_128))) (let ((.def_130 (or .def_129 .def_127))) (let ((.def_131 (not .def_130))) (let ((.def_132 (or .def_131 .def_125))) (let ((.def_133 (= A8 .def_122))) (let ((.def_134 (or .def_38 .def_2))) (let ((.def_135 (not .def_134))) (let ((.def_136 (and .def_135 .def_133))) (let ((.def_137 (not .def_136))) (let ((.def_138 (and .def_122 A5))) (let ((.def_139 (or A19 .def_101))) (let ((.def_140 (not .def_139))) (let ((.def_141 (and .def_140 .def_138))) (let ((.def_142 (not .def_141))) (let ((.def_143 (and .def_142 .def_137))) (let ((.def_144 (not .def_143))) (let ((.def_145 (and .def_144 .def_132))) (let ((.def_146 (or A12 A11))) (let ((.def_147 (and .def_94 A18))) (let ((.def_148 (and .def_147 .def_146))) (let ((.def_149 (not .def_148))) (let ((.def_150 (or A12 A8))) (let ((.def_151 (not .def_150))) (let ((.def_152 (not A6))) (let ((.def_153 (not A0))) (let ((.def_154 (and .def_153 .def_152))) (let ((.def_155 (not .def_154))) (let ((.def_156 (and .def_155 .def_151))) (let ((.def_157 (not .def_156))) (let ((.def_158 (and .def_157 .def_149))) (let ((.def_159 (and A21 A6))) (let ((.def_160 (and A15 A23))) (let ((.def_161 (or .def_160 .def_159))) (let ((.def_162 (not .def_161))) (let ((.def_163 (or A20 .def_101))) (let ((.def_164 (not .def_163))) (let ((.def_165 (= .def_153 .def_41))) (let ((.def_166 (and .def_165 .def_164))) (let ((.def_167 (not .def_166))) (let ((.def_168 (and .def_167 .def_162))) (let ((.def_169 (not .def_168))) (let ((.def_170 (and .def_169 .def_158))) (let ((.def_171 (not .def_170))) (let ((.def_172 (or .def_171 .def_145))) (let ((.def_173 (not .def_172))) (let ((.def_174 (and A9 A12))) (let ((.def_175 (not .def_174))) (let ((.def_176 (and .def_65 A8))) (let ((.def_177 (not .def_176))) (let ((.def_178 (and .def_177 .def_175))) (let ((.def_179 (or .def_153 A8))) (let ((.def_180 (not .def_179))) (let ((.def_181 (and A21 A8))) (let ((.def_182 (not .def_181))) (let ((.def_183 (and .def_182 .def_180))) (let ((.def_184 (not .def_183))) (let ((.def_185 (and .def_184 .def_178))) (let ((.def_186 (and A4 .def_37))) (let ((.def_187 (or .def_3 A10))) (let ((.def_188 (and .def_187 .def_186))) (let ((.def_189 (or .def_49 A6))) (let ((.def_190 (not .def_189))) (let ((.def_191 (and A13 .def_122))) (let ((.def_192 (or .def_191 .def_190))) (let ((.def_193 (not .def_192))) (let ((.def_194 (or .def_193 .def_188))) (let ((.def_195 (not .def_194))) (let ((.def_196 (or .def_195 .def_185))) (let ((.def_197 (not .def_196))) (let ((.def_198 (= A4 .def_37))) (let ((.def_199 (or A10 A24))) (let ((.def_200 (or .def_199 .def_198))) (let ((.def_201 (not .def_200))) (let ((.def_202 (or .def_0 .def_9))) (let ((.def_203 (not .def_202))) (let ((.def_204 (or .def_23 .def_49))) (let ((.def_205 (not .def_204))) (let ((.def_206 (and .def_205 .def_203))) (let ((.def_207 (not .def_206))) (let ((.def_208 (and .def_207 .def_201))) (let ((.def_209 (and A5 A19))) (let ((.def_210 (not .def_209))) (let ((.def_211 (not A19))) (let ((.def_212 (and .def_19 .def_211))) (let ((.def_213 (or .def_212 .def_210))) (let ((.def_214 (or .def_23 .def_65))) (let ((.def_215 (not .def_214))) (let ((.def_216 (not A18))) (let ((.def_217 (and .def_216 A6))) (let ((.def_218 (and .def_217 .def_215))) (let ((.def_219 (or .def_218 .def_213))) (let ((.def_220 (not .def_219))) (let ((.def_221 (or .def_220 .def_208))) (let ((.def_222 (not .def_221))) (let ((.def_223 (or .def_222 .def_197))) (let ((.def_224 (not .def_223))) (let ((.def_225 (= .def_224 .def_173))) (let ((.def_226 (and .def_225 .def_120))) .def_226))))))))))))))))))))))))))))))))))))))))))))))))))))))))))))))))))))))))))))))))))))))))))))))))))))))))))))))))))))))))))))))))))))))))))))))))))))))))))))))))))))))))))))))))))))))))))))))))))))))))))))))))))))))))))))))))))))
(check-sat)
